
Gurobi 13.0.1 (linux64) logging started Sun Mar 22 03:03:32 2026

Set parameter LogFile to value "logs/100B_3F_robust_gamma_0d5_theta_0d05199999999999999_2026-03-22_03h02m38s.log"
Set parameter MIPGap to value 0.005
Set parameter OptimalityTol to value 0.005
Gurobi Optimizer version 13.0.1 build v13.0.1rc0 (linux64 - "openSUSE Tumbleweed")

CPU model: Intel(R) Core(TM) i7-10610U CPU @ 1.80GHz, instruction set [SSE2|AVX|AVX2]
Thread count: 4 physical cores, 8 logical processors, using up to 8 threads

Non-default parameters:
TimeLimit  3600
SoftMemLimit  12
MIPGap  0.005
OptimalityTol  0.005

Optimize a model with 60721 rows, 1531121 columns and 4635098 nonzeros (Max)
Model fingerprint: 0xe2af3859
Model has 1485111 linear objective coefficients
Variable types: 16121 continuous, 1515000 integer (1515000 binary)
Coefficient statistics:
  Matrix range     [3e-05, 1e+05]
  Objective range  [1e+00, 3e+03]
  Bounds range     [1e+00, 1e+05]
  RHS range        [1e+00, 1e+05]

Presolve removed 36714 rows and 1241081 columns
Presolve time: 1.08s
Presolved: 24007 rows, 290040 columns, 921754 nonzeros
Variable types: 6446 continuous, 283594 integer (283594 binary)
Found heuristic solution: objective -4.95506e+08
Performing another presolve...
Presolve added 0 rows and 10 columns
Presolve removed 18 rows and 0 columns
Presolve time: 1.97s
Deterministic concurrent LP optimizer: primal simplex, dual simplex, and barrier
Showing barrier log only...

Root barrier log...

Ordering time: 0.78s

Barrier statistics:
 AA' NZ     : 4.530e+05
 Factor NZ  : 4.055e+06 (roughly 160 MB of memory)
 Factor Ops : 1.381e+09 (less than 1 second per iteration)
 Threads    : 2

                  Objective                Residual
Iter       Primal          Dual         Primal    Dual     Compl     Time
   0  -2.66088906e+12  1.35047632e+09  1.05e+08 1.02e+03  2.69e+07     6s
   1  -2.94114625e+11  5.13123586e+09  1.16e+07 3.02e-11  3.07e+06     6s
   2  -9.55600070e+09  3.06702591e+09  3.77e+05 3.64e-11  1.04e+05     6s
   3  -8.18905071e+08  1.83448256e+09  3.27e+04 2.22e-10  1.18e+04     7s
   4   2.41591507e+08  9.95704499e+08  1.76e+03 6.84e-11  1.59e+03     7s
   5   2.94443372e+08  4.63646809e+08  2.85e+02 6.49e-11  3.24e+02     7s
   6   3.03254705e+08  3.64932275e+08  7.58e+01 6.37e-11  1.14e+02     7s
   7   3.05387369e+08  3.24693865e+08  3.14e+01 1.12e-10  3.63e+01     8s
   8   3.05992975e+08  3.21148500e+08  1.98e+01 1.26e-10  2.78e+01     8s
   9   3.06647213e+08  3.14926258e+08  8.26e+00 8.82e-11  1.48e+01     8s
  10   3.07005565e+08  3.09682353e+08  2.27e+00 9.78e-11  4.67e+00     8s
  11   3.07073631e+08  3.08573864e+08  1.33e+00 8.37e-11  2.58e+00     8s
  12   3.07160833e+08  3.08068756e+08  3.31e-01 9.71e-11  1.54e+00     8s
  13   3.07217544e+08  3.07516776e+08  3.29e-02 8.09e-11  5.05e-01     9s
  14   3.07241959e+08  3.07422082e+08  9.26e-03 9.00e-11  3.04e-01     9s
  15   3.07249759e+08  3.07355648e+08  4.80e-03 9.80e-11  1.79e-01     9s
  16   3.07254694e+08  3.07311204e+08  2.39e-03 9.55e-11  9.54e-02     9s
  17   3.07259440e+08  3.07287652e+08  7.04e-04 8.55e-11  4.76e-02    10s
  18   3.07260783e+08  3.07279104e+08  2.76e-04 9.62e-11  3.09e-02    10s
  19   3.07261214e+08  3.07273651e+08  1.76e-04 9.64e-11  2.10e-02    10s
  20   3.07261517e+08  3.07269278e+08  1.16e-04 1.03e-10  1.31e-02    10s
  21   3.07261779e+08  3.07266891e+08  7.14e-05 1.03e-10  8.63e-03    10s
  22   3.07262030e+08  3.07265276e+08  3.69e-05 1.14e-10  5.48e-03    11s
  23   3.07262137e+08  3.07264318e+08  2.26e-05 1.24e-10  3.68e-03    11s
  24   3.07262180e+08  3.07263867e+08  1.77e-05 1.09e-10  2.85e-03    11s
  25   3.07262219e+08  3.07263561e+08  1.36e-05 1.05e-10  2.27e-03    11s
  26   3.07262285e+08  3.07263228e+08  7.00e-06 1.15e-10  1.59e-03    11s
  27   3.07262324e+08  3.07262897e+08  3.71e-06 1.04e-10  9.67e-04    12s
  28   3.07262351e+08  3.07262707e+08  1.87e-06 9.89e-11  6.01e-04    12s
  29   3.07262369e+08  3.07262595e+08  6.82e-07 9.57e-11  3.82e-04    12s
  30   3.07262372e+08  3.07262547e+08  4.92e-07 1.11e-10  2.95e-04    12s
  31   3.07262374e+08  3.07262499e+08  4.19e-07 1.07e-10  2.11e-04    13s
  32   3.07262378e+08  3.07262485e+08  2.56e-07 1.27e-10  1.80e-04    13s
  33   3.07262379e+08  3.07262446e+08  2.04e-07 1.14e-10  1.12e-04    13s
  34   3.07262383e+08  3.07262423e+08  6.14e-08 9.55e-11  6.70e-05    13s
  35   3.07262385e+08  3.07262407e+08  1.03e-08 8.30e-11  3.72e-05    14s
  36   3.07262385e+08  3.07262399e+08  4.48e-09 9.55e-11  2.32e-05    14s
  37   3.07262385e+08  3.07262392e+08  2.62e-09 8.39e-11  1.20e-05    14s
  38   3.07262385e+08  3.07262386e+08  1.51e-09 5.80e-11  1.25e-06    14s
  39   3.07262386e+08  3.07262386e+08  4.42e-09 5.75e-11  4.46e-09    14s

Barrier solved model in 39 iterations and 14.41 seconds (10.39 work units)
Optimal objective 3.07262386e+08


Root crossover log...

    7096 DPushes remaining with DInf 0.0000000e+00                14s
       0 DPushes remaining with DInf 0.0000000e+00                15s

    5053 PPushes remaining with PInf 7.4892452e-04                15s
       0 PPushes remaining with PInf 0.0000000e+00                15s

  Push phase complete: Pinf 0.0000000e+00, Dinf 7.0480275e+04     15s


Root simplex log...

Iteration    Objective       Primal Inf.    Dual Inf.      Time
   11827    3.0726239e+08   0.000000e+00   7.048008e+04     15s
   12124    3.0726239e+08   0.000000e+00   1.272621e+05     15s
   13255    3.0726239e+08   0.000000e+00   0.000000e+00     16s
Crossover time: 1.43 seconds (0.77 work units)
Concurrent spin time: 0.12s

Solved with barrier

Root relaxation: objective 3.072624e+08, 13255 iterations, 11.69 seconds (6.85 work units)
Total elapsed time = 15.98s (DegenMoves)

    Nodes    |    Current Node    |     Objective Bounds      |     Work
 Expl Unexpl |  Obj  Depth IntInf | Incumbent    BestBd   Gap | It/Node Time

     0     0 3.0726e+08    0 7500 -4.955e+08 3.0726e+08   162%     -   17s
H    0     0                    -6.95077e+07 3.0726e+08   542%     -   18s
H    0     0                    -6.94358e+07 3.0726e+08   543%     -   18s
H    0     0                    -5.53519e+07 3.0726e+08   655%     -   18s
H    0     0                    -5.53512e+07 3.0726e+08   655%     -   20s
H    0     0                    -5.53511e+07 3.0726e+08   655%     -   20s
H    0     0                    7.021297e+07 3.0726e+08   338%     -   24s
H    0     0                    1.909374e+08 3.0726e+08  60.9%     -   25s
H    0     0                    1.965634e+08 3.0726e+08  56.3%     -   27s
     0     0 3.0726e+08    0 7219 1.9656e+08 3.0726e+08  56.3%     -  568s
H    0     0                    2.418915e+08 3.0726e+08  27.0%     -  574s
H    0     0                    2.418924e+08 3.0726e+08  27.0%     -  574s
H    0     0                    2.418926e+08 3.0726e+08  27.0%     -  579s
H    0     0                    2.418992e+08 3.0726e+08  27.0%     -  674s
H    0     0                    2.434950e+08 3.0726e+08  26.2%     -  777s
H    0     0                    2.435781e+08 3.0726e+08  26.1%     -  811s
H    0     0                    2.441603e+08 3.0726e+08  25.8%     -  838s
H    0     0                    2.460234e+08 3.0726e+08  24.9%     -  867s
H    0     0                    2.461511e+08 3.0726e+08  24.8%     - 1320s
H    0     0                    2.465003e+08 3.0726e+08  24.6%     - 1324s
     0     0 3.0726e+08    0 7776 2.4650e+08 3.0726e+08  24.6%     - 2681s
H    0     0                    2.474148e+08 3.0726e+08  24.2%     - 2683s
H    0     0                    2.478696e+08 3.0726e+08  24.0%     - 2684s
H    0     0                    2.574397e+08 3.0726e+08  19.4%     - 2692s
H    0     0                    2.584865e+08 3.0726e+08  18.9%     - 2694s
H    0     0                    2.586255e+08 3.0726e+08  18.8%     - 2703s
H    0     0                    2.621049e+08 3.0726e+08  17.2%     - 2720s
H    0     0                    2.622532e+08 3.0726e+08  17.2%     - 2755s
H    0     0                    2.624004e+08 3.0726e+08  17.1%     - 2804s
H    0     0                    2.624045e+08 3.0726e+08  17.1%     - 2855s
H    0     0                    2.624100e+08 3.0726e+08  17.1%     - 2958s
H    0     0                    2.624169e+08 3.0726e+08  17.1%     - 2990s
H    0     0                    2.624186e+08 3.0726e+08  17.1%     - 3140s
     0     0 3.0726e+08    0 7734 2.6242e+08 3.0726e+08  17.1%     - 3501s
     0     0          -    0      2.6242e+08 3.0726e+08  17.1%     - 3600s

Cutting planes:
  MIR: 42
  Flow cover: 79
  RLT: 2584
  Relax-and-lift: 50

Explored 1 nodes (814665 simplex iterations) in 3600.08 seconds (4689.71 work units)
Thread count was 8 (of 8 available processors)

Solution count 10: 2.62419e+08 2.62417e+08 2.6241e+08 ... 2.5744e+08

Time limit reached
Best objective 2.624185843098e+08, best bound 3.072601635025e+08, gap 17.0878%
